c NeuroCodeBench 2.0 CNF formula with verdict Unsat
p cnf 8 24
-1 -3 4 7 -2 -6 0
-1 -3 4 -7 -2 -5 0
1 -2 -8 0
-1 3 -4 7 -6 0
-1 -3 4 7 -2 6 0
-1 3 -4 7 6 0
-1 3 4 -6 0
1 -2 8 -3 5 0
-1 3 4 6 0
1 2 -4 7 0
1 -2 8 3 -6 0
1 -2 8 3 6 0
1 2 4 5 0
-1 -3 4 7 2 0
-1 -3 -4 2 0
1 -2 8 -3 -5 0
1 2 4 -5 0
-1 -3 4 -7 -2 5 0
-1 3 -4 -7 -8 -6 0
-1 -3 4 -7 2 0
-1 3 -4 -7 -8 6 0
-1 3 -4 -7 8 0
-1 -3 -4 -2 0
1 2 -4 -7 0
